c Result of efficient AIG-to-CNF conversion using package CNF
p cnf 29 46
-2 -3 -8 0
-2 3 8 0
2 3 -8 0
2 -3 8 0
3 4 -5 -6 -7 0
3 -4 5 -6 -7 0
3 4 -5 6 7 0
3 -4 5 6 7 0
-3 6 -7 0
-3 -6 7 0
-3 -4 -5 0
-3 4 5 0
4 -15 16 0
-4 15 0
-4 -16 0
5 13 -14 0
-5 -13 0
-5 14 0
6 -19 20 0
-6 19 0
-6 -20 0
7 17 -18 0
-7 -17 0
-7 18 0
8 9 -10 -11 -12 0
8 -9 10 -11 -12 0
8 9 -10 11 12 0
8 -9 10 11 12 0
-8 11 -12 0
-8 -11 12 0
-8 -9 -10 0
-8 9 10 0
9 -27 28 0
-9 27 0
-9 -28 0
10 25 -26 0
-10 -25 0
-10 26 0
11 -23 24 0
-11 23 0
-11 -24 0
12 21 -22 0
-12 -21 0
-12 22 0
-29 0
-2 0

